46
Si1
Si    0.000000    0.000000    0.000000
Si    0.000000    0.000000    5.430530
Si    0.000000    5.430530    0.000000
Si    0.000000    5.430530    5.430530
Si    5.430530    0.000000    0.000000
Si    5.430530    0.000000    5.430530
Si    5.430530    5.430530    0.000000
Si    5.430530    5.430530    5.430530
Si    0.000000    2.715265    2.715265
Si    5.430530    2.715265    2.715265
Si    2.715265    2.715265    0.000000
Si    2.715265    2.715265    5.430530
Si    2.715265    0.000000    2.715265
Si    2.715265    5.430530    2.715265
Si    4.072898    1.357633    4.072898
Si    1.357633    1.357633    1.357633
Si    1.357633    4.072898    4.072898
Si    4.072898    4.072898    1.357633
Si   -1.357633   -1.357633    1.357633
Si   -1.357633    1.357633   -1.357633
Si    1.357633   -1.357633   -1.357633
Si   -1.357633   -1.357633    6.788163
Si   -1.357633    1.357633    4.072898
Si    1.357633   -1.357633    4.072898
Si    1.357633    1.357633    6.788163
Si   -1.357633    4.072898    1.357633
Si   -1.357633    6.788163   -1.357633
Si    1.357633    4.072898   -1.357633
Si    1.357633    6.788163    1.357633
Si   -1.357633    4.072898    6.788163
Si   -1.357633    6.788163    4.072898
Si    1.357633    6.788163    6.788163
Si    4.072898   -1.357633    1.357633
Si    4.072898    1.357633   -1.357633
Si    6.788163   -1.357633   -1.357633
Si    6.788163    1.357633    1.357633
Si    4.072898   -1.357633    6.788163
Si    6.788163   -1.357633    4.072898
Si    6.788163    1.357633    6.788163
Si    4.072898    6.788163   -1.357633
Si    6.788163    4.072898   -1.357633
Si    6.788163    6.788163    1.357633
Si    4.072898    4.072898    6.788163
Si    4.072898    6.788163    4.072898
Si    6.788163    4.072898    4.072898
Si    6.788163    6.788163    6.788163
